
************************************************************
 TOWR - Trajectory Optimization for Walking Robots (v1.4)
                © Alexander W. Winkler
           https://github.com/ethz-adrl/towr
************************************************************

0.5111111111117089
6.642197691788333e-13
0.2
0
0
0.24
0
0
0
t
-e1
0.21
value fo cmd_return -> t -e1 0.21
next line
0.21
0.19
0.0
0.21
-0.19
0.0
-0.21
0.19
0.0
-0.21
-0.19
0.0
0.1
ee start pos x -> 0.21
ee start pos y -> 0.19
ee start pos z -> 0
ee start pos x -> 0.21
ee start pos y -> -0.19
ee start pos z -> 0
ee start pos x -> -0.21
ee start pos y -> 0.19
ee start pos z -> 0
ee start pos x -> -0.21
ee start pos y -> -0.19
ee start pos z -> 0
start pos x -> 0
start pos y -> 0
start pos z -> 0.24
goal pos x -> 0.511111
goal pos y -> 6.6422e-13
goal pos z -> 0.2
ee start pos x -> 0.21
ee start pos y -> 0.19
ee start pos z -> 0
ee start pos x -> 0.21
ee start pos y -> -0.19
ee start pos z -> 0
ee start pos x -> -0.21
ee start pos y -> 0.19
ee start pos z -> 0
ee start pos x -> -0.21
ee start pos y -> -0.19
ee start pos z -> 0
SOLVER RUN TIME : 15

******************************************************************************
This program contains Ipopt, a library for large-scale nonlinear optimization.
 Ipopt is released as open source code under the Eclipse Public License (EPL).
         For more information visit http://projects.coin-or.org/Ipopt
******************************************************************************

This is Ipopt version 3.11.9, running with linear solver mumps.
NOTE: Other linear solvers might be more efficient (see Ipopt documentation).

Number of nonzeros in equality constraint Jacobian...:    11557
Number of nonzeros in inequality constraint Jacobian.:    20605
Number of nonzeros in Lagrangian Hessian.............:        0

Total number of variables............................:     1005
                     variables with only lower bounds:        0
                variables with lower and upper bounds:        0
                     variables with only upper bounds:        0
Total number of equality constraints.................:      706
Total number of inequality constraints...............:     1024
        inequality constraints with only lower bounds:      112
   inequality constraints with lower and upper bounds:      816
        inequality constraints with only upper bounds:       96

iter    objective    inf_pr   inf_du lg(mu)  ||d||  lg(rg) alpha_du alpha_pr  ls
   0  0.0000000e+00 9.71e+00 1.00e+00   0.0 0.00e+00    -  0.00e+00 0.00e+00   0
   1  0.0000000e+00 7.27e+00 8.36e+00  -0.7 4.36e+00    -  3.39e-01 2.51e-01f  1
   2  0.0000000e+00 6.78e+00 2.29e+02   0.5 1.37e+01    -  9.88e-01 6.82e-02f  1
   3  0.0000000e+00 3.80e-01 3.24e+02   0.8 6.70e+00    -  1.00e+00 1.00e+00f  1
   4  0.0000000e+00 1.06e-02 2.64e+01   0.5 1.05e+00    -  9.92e-01 1.00e+00f  1
   5  0.0000000e+00 1.97e-05 1.11e+00  -1.4 1.46e-01    -  9.93e-01 1.00e+00h  1
   6  0.0000000e+00 9.15e-07 4.89e-03  -3.1 2.55e-02    -  9.98e-01 1.00e+00h  1
   7  0.0000000e+00 1.23e-10 2.01e-04  -9.0 2.12e-06    -  9.95e-01 1.00e+00h  1

Number of Iterations....: 7

                                   (scaled)                 (unscaled)
Objective...............:   0.0000000000000000e+00    0.0000000000000000e+00
Dual infeasibility......:   2.0125994262246049e-04    2.0125994262246049e-04
Constraint violation....:   4.1581511073929500e-11    1.2294876228224894e-10
Complementarity.........:   5.5842648708733095e-06    5.5842648708733095e-06
Overall NLP error.......:   2.0125994262246049e-04    2.0125994262246049e-04


Number of objective function evaluations             = 8
Number of objective gradient evaluations             = 8
Number of equality constraint evaluations            = 8
Number of inequality constraint evaluations          = 8
Number of equality constraint Jacobian evaluations   = 8
Number of inequality constraint Jacobian evaluations = 8
Number of Lagrangian Hessian evaluations             = 0
Total CPU secs in IPOPT (w/o function evaluations)   =      0.322
Total CPU secs in NLP function evaluations           =      0.468

EXIT: Optimal Solution Found.
status -> 0

************************************************************
    IFOPT - Interface to Nonlinear Optimizers (v2.0)
                © Alexander W. Winkler
           https://github.com/ethz-adrl/ifopt
************************************************************
Legend:
c - number of variables, constraints or cost terms
i - indices of this set in overall problem
v - number of [violated variable- or constraint-bounds] or [cost term value]

                                   c             i             v 
variable-sets:
   base-lin                       306        0....305[0m           0[0m
   base-ang                       306      306....611[0m           0[0m
   ee-motion_0                     35      612....646[0m           0[0m
   ee-motion_1                     35      647....681[0m           0[0m
   ee-motion_2                     35      682....716[0m           0[0m
   ee-motion_3                     35      717....751[0m           0[0m
   ee-force_0                      72      752....823[0m           0[0m
   ee-force_1                      72      824....895[0m           0[0m
   ee-force_2                      72      896....967[0m           0[0m
   ee-force_3                      72      968...1039[0m           0[0m

constraint-sets:
   terrain-ee-motion_0             13        0.....12[0m           0[0m
   terrain-ee-motion_1             13       13.....25[0m           0[0m
   terrain-ee-motion_2             13       26.....38[0m           0[0m
   terrain-ee-motion_3             13       39.....51[0m           0[0m
   dynamic                        312       52....363[0m           0[0m
   splineacc-base-lin             147      364....510[0m           0[0m
   splineacc-base-ang             147      511....657[0m           0[0m
   rangeofmotion-0                192      658....849[0m           0[0m
   rangeofmotion-1                192      850...1041[0m           0[0m
   rangeofmotion-2                192     1042...1233[0m           0[0m
   rangeofmotion-3                192     1234...1425[0m           0[0m
   force-ee-force_0                60     1426...1485[0m           0[0m
   force-ee-force_1                60     1486...1545[0m           0[0m
   force-ee-force_2                60     1546...1605[0m           0[0m
   force-ee-force_3                60     1606...1665[0m           0[0m
   swing-ee-motion_0               16     1666...1681[0m           0[0m
   swing-ee-motion_1               16     1682...1697[0m           0[0m
   swing-ee-motion_2               16     1698...1713[0m           0[0m
   swing-ee-motion_3               16     1714...1729[0m           0[0m

cost-terms:


************************************************************
 TOWR - Trajectory Optimization for Walking Robots (v1.4)
                © Alexander W. Winkler
           https://github.com/ethz-adrl/towr
************************************************************

0.8944444444519624
0.0
0.2
0.305355
-0.00463576
0.240074
-0.0401456
-0.0321063
-0.0369206
t
-e1
0.524512
value fo cmd_return -> t -e1 0.524512
next line
0.524512
0.14594
0
0.557761
-0.192918
0
0.0780531
0.183451
0
0.105219
-0.151642
0
3.757
s_vel
0.0727374
0.1
-t
3.757
ee start pos x -> 0.524512
ee start pos y -> 0.14594
ee start pos z -> 0
ee start pos x -> 0.557761
ee start pos y -> -0.192918
ee start pos z -> 0
ee start pos x -> 0.0780531
ee start pos y -> 0.183451
ee start pos z -> 0
ee start pos x -> 0.105219
ee start pos y -> -0.151642
ee start pos z -> 0
start pos x -> 0.305355
start pos y -> -0.00463576
start pos z -> 0.240074
goal pos x -> 0.894444
goal pos y -> 0
goal pos z -> 0.2
ee start pos x -> 0.524512
ee start pos y -> 0.14594
ee start pos z -> 0
ee start pos x -> 0.557761
ee start pos y -> -0.192918
ee start pos z -> 0
ee start pos x -> 0.0780531
ee start pos y -> 0.183451
ee start pos z -> 0
ee start pos x -> 0.105219
ee start pos y -> -0.151642
ee start pos z -> 0
SOLVER RUN TIME : 15

******************************************************************************
This program contains Ipopt, a library for large-scale nonlinear optimization.
 Ipopt is released as open source code under the Eclipse Public License (EPL).
         For more information visit http://projects.coin-or.org/Ipopt
******************************************************************************

This is Ipopt version 3.11.9, running with linear solver mumps.
NOTE: Other linear solvers might be more efficient (see Ipopt documentation).

Number of nonzeros in equality constraint Jacobian...:    11557
Number of nonzeros in inequality constraint Jacobian.:    20605
Number of nonzeros in Lagrangian Hessian.............:        0

Total number of variables............................:     1005
                     variables with only lower bounds:        0
                variables with lower and upper bounds:        0
                     variables with only upper bounds:        0
Total number of equality constraints.................:      706
Total number of inequality constraints...............:     1024
        inequality constraints with only lower bounds:      112
   inequality constraints with lower and upper bounds:      816
        inequality constraints with only upper bounds:       96

iter    objective    inf_pr   inf_du lg(mu)  ||d||  lg(rg) alpha_du alpha_pr  ls
   0  0.0000000e+00 9.71e+00 1.00e+00   0.0 0.00e+00    -  0.00e+00 0.00e+00   0
   1  0.0000000e+00 8.83e+00 1.03e+01  -0.3 5.37e+00    -  2.34e-02 9.03e-02f  1
   2  0.0000000e+00 7.95e+00 9.49e+00  -0.7 4.55e+00    -  3.47e-01 1.00e-01h  1
   3  0.0000000e+00 7.53e+00 1.55e+03   0.7 2.18e+01    -  9.90e-01 5.20e-02f  1
   4  0.0000000e+00 7.25e+00 4.35e+04   1.2 1.56e+01    -  1.00e+00 3.78e-02h  1
   5  0.0000000e+00 6.98e+00 4.11e+06   2.9 1.68e+02    -  5.88e-01 3.76e-02f  1
   6  0.0000000e+00 5.74e+00 1.72e+06   3.1 9.55e+01    -  1.00e+00 1.78e-01f  1
   7  0.0000000e+00 2.21e+00 6.94e+05   3.0 7.37e+01    -  1.00e+00 6.15e-01f  1
   8  0.0000000e+00 6.11e-01 5.29e+05   3.2 9.38e+01    -  9.85e-01 7.23e-01h  1
   9  0.0000000e+00 2.17e-01 1.51e+05   3.3 7.20e+01    -  6.63e-01 1.00e+00f  1
iter    objective    inf_pr   inf_du lg(mu)  ||d||  lg(rg) alpha_du alpha_pr  ls
  10  0.0000000e+00 9.65e-02 5.56e+05   3.2 7.30e+01    -  9.73e-01 6.55e-01h  1
  11  0.0000000e+00 4.58e-01 3.63e+05   3.2 4.52e+02    -  7.92e-01 5.99e-01f  1
  12  0.0000000e+00 7.85e-01 2.16e+05   3.1 6.79e+02    -  3.03e-01 6.46e-01f  1
  13  0.0000000e+00 5.80e-01 3.03e+05   2.4 5.79e+02    -  5.16e-01 2.84e-01h  1
  14  0.0000000e+00 9.93e-01 4.45e+05   1.7 8.71e+02    -  2.65e-01 6.01e-01h  1
  15  0.0000000e+00 9.38e-01 8.94e+05   1.7 8.36e+02    -  2.02e-01 4.00e-01h  1
  16  0.0000000e+00 8.04e-01 1.26e+06   1.7 4.36e+02    -  3.93e-03 1.36e-01h  1
  17  0.0000000e+00 6.37e-01 3.31e+05   1.7 2.87e+01    -  3.79e-01 2.19e-01h  1
  18  0.0000000e+00 3.72e-01 1.85e+05   1.7 7.19e+01    -  3.99e-01 3.66e-01h  1
  19  0.0000000e+00 3.26e-01 5.92e+05   1.7 1.59e+02    -  3.41e-01 1.45e-01h  2
iter    objective    inf_pr   inf_du lg(mu)  ||d||  lg(rg) alpha_du alpha_pr  ls
  20  0.0000000e+00 3.09e-01 1.74e+06   1.7 1.99e+02    -  4.69e-01 5.57e-02h  3
  21  0.0000000e+00 2.39e-01 2.15e+06   1.7 2.24e+02    -  4.44e-01 2.00e-01H  1
  22  0.0000000e+00 1.95e-01 1.35e+06   1.7 3.00e+01    -  3.54e-02 2.34e-01h  1
  23  0.0000000e+00 1.64e-01 1.96e+06   1.7 4.98e+01    -  4.39e-01 1.60e-01H  1
  24  0.0000000e+00 1.34e-01 1.91e+06   1.7 4.60e+01    -  3.47e-01 1.77e-01h  1
  25  0.0000000e+00 1.32e-01 2.37e+06   1.7 4.27e+01    -  3.44e-01 3.39e-02h  4
  26  0.0000000e+00 1.40e-01 3.27e+06   1.7 3.41e+01    -  8.09e-01 2.66e-02h  5
  27  0.0000000e+00 1.28e-01 3.12e+06   1.7 2.00e+02    -  2.41e-01 6.32e-02h  4
  28  0.0000000e+00 1.16e-01 3.07e+06   1.7 1.67e+03    -  2.61e-01 9.95e-02H  1
  29  0.0000000e+00 1.55e-01 2.85e+06   2.7 4.51e+03    -  4.14e-01 1.28e-01f  1
iter    objective    inf_pr   inf_du lg(mu)  ||d||  lg(rg) alpha_du alpha_pr  ls
  30  0.0000000e+00 3.06e-01 2.55e+06   2.3 1.23e+04    -  4.86e-01 1.99e-01F  1
  31  0.0000000e+00 8.53e-01 2.24e+06   2.3 2.72e+04    -  2.37e-01 1.43e-01f  2
  32  0.0000000e+00 9.06e-01 2.20e+06   2.3 1.78e+04    -  3.55e-01 1.14e-01f  2
  33  0.0000000e+00 7.60e-01 2.32e+06   2.3 1.32e+04    -  4.86e-01 1.96e-01H  1
  34  0.0000000e+00 1.40e-01 3.59e+05   2.3 1.76e+01    -  1.00e+00 8.89e-01h  1
  35  0.0000000e+00 1.21e-01 9.89e+05   1.6 2.66e+01    -  3.61e-01 6.13e-01h  1
  36  0.0000000e+00 1.22e-01 3.11e+06   1.6 1.85e+01    -  4.66e-01 1.00e+00h  1
  37  0.0000000e+00 1.28e-01 5.02e+05   2.5 1.46e+02    -  7.18e-01 4.31e-01f  1
  38  0.0000000e+00 1.21e-01 2.09e+05   2.3 2.48e+02    -  3.11e-01 3.55e-01h  1
  39  0.0000000e+00 1.21e-01 1.07e+05   1.6 1.16e+02    -  5.16e-01 5.49e-01h  1
iter    objective    inf_pr   inf_du lg(mu)  ||d||  lg(rg) alpha_du alpha_pr  ls
  40  0.0000000e+00 1.21e-01 1.10e+05   0.9 1.40e+02    -  2.49e-01 2.58e-01h  1
  41  0.0000000e+00 1.22e-01 7.92e+05   0.9 1.38e+02    -  4.44e-01 3.26e-01h  1
  42  0.0000000e+00 1.22e-01 5.60e+05   0.9 1.06e+01    -  3.37e-01 3.32e-01h  1
  43  0.0000000e+00 1.22e-01 2.55e+06   1.9 7.83e+00    -  1.00e+00 6.49e-01f  1
  44  0.0000000e+00 1.23e-01 1.56e+06   2.4 1.09e+02    -  6.30e-01 4.80e-01f  1
  45  0.0000000e+00 1.72e-01 2.85e+05   2.2 9.04e+01    -  5.12e-01 8.07e-01f  1
  46  0.0000000e+00 1.29e-01 1.11e+05   1.5 1.55e+02    -  4.54e-01 4.27e-01h  1
  47  0.0000000e+00 1.24e-01 5.70e+05   0.8 1.42e+01    -  5.03e-01 5.74e-01h  1
  48  0.0000000e+00 1.24e-01 1.02e+06   0.8 2.60e+01    -  2.01e-01 2.71e-01h  1
  49  0.0000000e+00 1.25e-01 2.01e+05   0.8 3.84e+01    -  2.72e-01 1.56e-01h  1
iter    objective    inf_pr   inf_du lg(mu)  ||d||  lg(rg) alpha_du alpha_pr  ls
  50  0.0000000e+00 1.25e-01 4.49e+05   0.8 3.79e+01    -  4.78e-02 1.26e-01h  1
  51  0.0000000e+00 1.25e-01 4.32e+05   0.8 5.18e+01    -  3.84e-02 3.84e-02s 18
  52  0.0000000e+00 1.25e-01 4.06e+05   0.8 5.92e+01    -  6.06e-02 6.06e-02s 18
  53  0.0000000e+00 1.25e-01 3.72e+05   0.8 7.06e+01    -  8.35e-02 8.35e-02s 18
  54  0.0000000e+00 1.25e-01 6.10e+05   0.8 9.68e+01    -  1.16e-01 0.00e+00S 18
  55  0.0000000e+00 1.25e-01 2.89e+05   0.8 8.50e+01    -  2.56e-02 6.36e-02h  1
  56  0.0000000e+00 1.25e-01 1.15e+06   0.8 7.31e+01    -  2.24e-01 1.09e-01h  1
  57  0.0000000e+00 1.25e-01 2.17e+06   0.8 6.19e+01    -  1.83e-01 2.96e-02h  1
  58  0.0000000e+00 1.25e-01 7.60e+05   0.8 5.35e+01    -  3.87e-01 4.58e-01h  1
  59  0.0000000e+00 1.25e-01 1.81e+06   0.8 3.84e+01    -  5.34e-01 3.54e-01h  2
iter    objective    inf_pr   inf_du lg(mu)  ||d||  lg(rg) alpha_du alpha_pr  ls
  60  0.0000000e+00 1.25e-01 1.44e+06   0.8 3.43e+01    -  3.75e-01 3.37e-01f  1
  61  0.0000000e+00 1.25e-01 3.32e+06   1.9 3.46e+02    -  3.53e-01 4.67e-02f  1
  62  0.0000000e+00 1.25e-01 2.71e+06   1.4 3.84e+02    -  1.57e-01 1.73e-01f  1
  63  0.0000000e+00 1.26e-01 2.30e+06   1.4 3.47e+02    -  3.26e-01 2.39e-01f  1
  64  0.0000000e+00 1.26e-01 5.41e+05   1.4 3.61e+01    -  2.80e-01 4.84e-01f  1
  65  0.0000000e+00 1.26e-01 1.81e+06   0.7 7.84e+01    -  1.55e-01 4.33e-01h  1
  66  0.0000000e+00 1.26e-01 2.04e+06   0.7 7.75e+01    -  2.39e-01 3.20e-01h  1
  67  0.0000000e+00 1.26e-01 1.99e+06   0.7 6.76e+01    -  1.28e-01 1.53e-01h  1
  68  0.0000000e+00 1.26e-01 1.60e+06   0.7 3.11e+01    -  2.10e-01 2.13e-01h  1
  69  0.0000000e+00 1.26e-01 5.59e+04   0.7 2.51e+02    -  1.62e-01 4.48e-03f  6
iter    objective    inf_pr   inf_du lg(mu)  ||d||  lg(rg) alpha_du alpha_pr  ls
  70  0.0000000e+00 1.26e-01 4.77e+05   0.0 2.43e+02    -  4.40e-02 3.66e-04h 10
  71  0.0000000e+00 1.26e-01 4.39e+05   0.0 2.47e+02    -  7.98e-02 7.98e-02s 20
  72  0.0000000e+00 1.26e-01 4.04e+05   0.0 3.68e+01    -  8.07e-02 8.07e-02s 20
  73  0.0000000e+00 1.26e-01 3.75e+05   0.0 3.41e+01    -  7.06e-02 7.06e-02s 20
  74  0.0000000e+00 1.25e-01 3.12e+06   0.0 3.22e+01    -  2.33e-01 0.00e+00S 20
  75  0.0000000e+00 1.25e-01 1.80e+06   0.0 2.52e+01    -  2.91e-01 3.25e-01h  1
  76  0.0000000e+00 1.25e-01 1.74e+06   0.0 1.98e+02    -  3.06e-02 3.06e-02s 17
  77  0.0000000e+00 1.25e-01 1.66e+06   0.0 3.96e+02    -  4.91e-02 4.91e-02s 17
  78  0.0000000e+00 1.25e-01 1.55e+06   0.0 8.02e+02    -  6.38e-02 6.38e-02s 17
  79  0.0000000e+00 1.36e-01 1.40e+06   0.0 1.47e+03    -  9.99e-02 9.99e-02s 17
iter    objective    inf_pr   inf_du lg(mu)  ||d||  lg(rg) alpha_du alpha_pr  ls
  80  0.0000000e+00 1.59e-01 1.34e+06   0.0 1.55e+03    -  4.04e-02 4.04e-02s 17
  81  0.0000000e+00 1.61e-01 1.32e+06   0.0 7.40e+02    -  1.78e-02 1.78e-02s 17
  82  0.0000000e+00 1.32e-01 1.23e+06   0.0 5.00e+01    -  6.32e-02 6.32e-02s 17
  83  0.0000000e+00 1.25e-01 1.15e+06   0.0 8.81e+01    -  6.50e-02 6.50e-02s 17
  84  0.0000000e+00 1.31e-01 1.07e+06   0.0 3.47e+02    -  7.46e-02 7.46e-02s 17
  85  0.0000000e+00 1.53e-01 9.84e+05   0.0 1.13e+03    -  7.89e-02 7.89e-02s 17
  86  0.0000000e+00 1.45e-01 9.38e+05   0.0 5.55e+02    -  4.64e-02 4.64e-02s 17
  87r 0.0000000e+00 1.45e-01 1.00e+03   0.0 0.00e+00    -  0.00e+00 0.00e+00R  1
  88r 0.0000000e+00 1.36e-01 1.55e+03   0.7 1.79e+01    -  9.69e-02 1.84e-02f  1
  89r 0.0000000e+00 1.26e-01 1.50e+03   0.6 9.97e+00    -  2.31e-01 8.30e-02f  1
iter    objective    inf_pr   inf_du lg(mu)  ||d||  lg(rg) alpha_du alpha_pr  ls
  90r 0.0000000e+00 1.28e-01 8.71e+02   0.3 8.86e+00    -  3.83e-01 2.45e-01f  1
  91  0.0000000e+00 1.29e-01 7.67e+00   0.0 2.15e+03    -  3.82e-03 8.78e-04f  1
  92  0.0000000e+00 1.28e-01 6.24e+01   0.0 1.52e+04    -  7.81e-03 2.38e-03f  1
  93  0.0000000e+00 1.28e-01 2.23e+02   0.0 3.50e+04    -  7.05e-03 1.19e-03f  1
  94  0.0000000e+00 1.28e-01 2.22e+02   0.0 1.31e+05    -  5.48e-04 5.48e-04s 12
  95r 0.0000000e+00 1.28e-01 9.91e+02   0.0 0.00e+00    -  0.00e+00 0.00e+00R  1
  96r 0.0000000e+00 1.29e-01 9.66e+02  -0.3 6.89e+00    -  5.09e-02 2.52e-02f  1
  97r 0.0000000e+00 1.31e-01 9.33e+02  -0.6 7.48e+00    -  6.88e-02 3.50e-02f  1
  98r 0.0000000e+00 1.37e-01 8.32e+02  -0.1 1.16e+01    -  1.01e-01 1.09e-01f  1
  99r 0.0000000e+00 1.29e-01 6.87e+02  -0.3 6.72e+00    -  1.66e-01 1.75e-01f  1
iter    objective    inf_pr   inf_du lg(mu)  ||d||  lg(rg) alpha_du alpha_pr  ls
 100r 0.0000000e+00 1.27e-01 6.21e+02   0.1 5.97e+00    -  3.96e-01 9.35e-02f  1
 101r 0.0000000e+00 1.42e-01 5.48e+02   0.6 1.32e+01    -  1.86e-01 1.15e-01f  1
 102r 0.0000000e+00 1.52e-01 4.41e+02   0.6 3.61e+00    -  2.79e-01 1.93e-01f  1
 103r 0.0000000e+00 1.79e-01 3.77e+02   0.6 3.99e+00    -  2.81e-01 5.37e-01f  1
 104r 0.0000000e+00 1.92e-01 4.20e+02   0.6 5.54e+00    -  4.91e-01 8.42e-01f  1
 105r 0.0000000e+00 1.81e-01 2.99e+02   0.6 6.53e+00    -  1.00e+00 5.92e-01f  1
 106r 0.0000000e+00 1.76e-01 7.57e+01   0.6 1.00e+01    -  1.00e+00 1.00e+00f  1
 107r 0.0000000e+00 1.79e-01 1.89e+02  -0.1 7.01e+00    -  2.99e-01 5.48e-01f  1
 108r 0.0000000e+00 1.79e-01 2.60e+02  -0.1 6.18e+00    -  6.17e-01 2.53e-01f  1
 109r 0.0000000e+00 1.83e-01 7.83e+01  -0.1 8.54e+00    -  6.81e-01 7.84e-01f  1
iter    objective    inf_pr   inf_du lg(mu)  ||d||  lg(rg) alpha_du alpha_pr  ls
 110r 0.0000000e+00 1.90e-01 7.71e+01  -0.2 1.53e+01    -  9.31e-01 6.20e-01f  1
 111r 0.0000000e+00 1.98e-01 3.55e+01  -0.5 8.94e+00    -  9.99e-01 9.89e-01f  1
 112r 0.0000000e+00 1.89e-01 7.49e+01   0.1 3.16e+01    -  3.65e-01 2.77e-01f  1
 113r 0.0000000e+00 1.86e-01 9.00e+01  -0.2 1.77e+01    -  8.83e-01 3.73e-01F  1
 114r 0.0000000e+00 1.81e-01 1.15e+02   0.1 5.38e+00    -  5.98e-01 7.67e-01f  1
 115r 0.0000000e+00 1.82e-01 1.10e+02  -0.1 2.70e+00    -  6.76e-01 3.73e-01f  1
 116r 0.0000000e+00 1.85e-01 2.97e+02  -0.1 4.74e+00    -  1.19e-01 4.14e-01f  1
 117r 0.0000000e+00 1.81e-01 3.21e+01  -0.1 1.90e+01    -  1.00e+00 1.00e+00f  1
 118r 0.0000000e+00 1.74e-01 4.75e+01  -0.8 1.75e+01    -  4.40e-01 5.91e-01f  1
 119r 0.0000000e+00 1.64e-01 8.83e+01  -0.8 1.75e+01    -  2.13e-01 2.86e-01f  1
iter    objective    inf_pr   inf_du lg(mu)  ||d||  lg(rg) alpha_du alpha_pr  ls
 120r 0.0000000e+00 1.60e-01 1.49e+02   0.5 1.80e+01    -  1.25e-01 1.56e-01f  1
 121r 0.0000000e+00 1.73e-01 7.10e+01  -0.2 2.35e+01    -  4.78e-01 5.39e-01F  1
 122r 0.0000000e+00 1.80e-01 2.43e+01  -0.2 1.03e+01    -  4.96e-01 5.15e-01f  1
 123r 0.0000000e+00 1.66e-01 5.15e+01  -0.3 3.96e+01    -  8.17e-01 6.87e-01f  1
 124r 0.0000000e+00 1.63e-01 1.85e+02  -0.4 3.12e+01    -  2.86e-01 1.69e-01f  1
 125r 0.0000000e+00 1.67e-01 1.46e+02  -0.4 1.18e+01    -  3.13e-01 2.90e-01f  1
 126r 0.0000000e+00 1.60e-01 4.48e+02  -0.4 3.14e+00    -  1.58e-01 7.35e-01f  1
 127r 0.0000000e+00 1.69e-01 3.27e+02  -0.4 1.34e+01    -  5.61e-01 2.17e-01h  2
 128r 0.0000000e+00 1.77e-01 1.99e+02  -0.7 1.33e+01    -  6.26e-01 4.08e-01f  1
 129r 0.0000000e+00 1.81e-01 1.25e+02  -0.5 2.50e+01    -  9.68e-01 3.56e-01h  1
iter    objective    inf_pr   inf_du lg(mu)  ||d||  lg(rg) alpha_du alpha_pr  ls
 130r 0.0000000e+00 1.82e-01 1.42e+02  -0.5 4.94e+01    -  3.70e-01 1.06e-01h  3
 131r 0.0000000e+00 1.86e-01 8.83e+01  -6.5 1.04e+01    -  3.76e-01 3.56e-01f  1
 132r 0.0000000e+00 1.86e-01 1.21e+02  -0.4 9.18e+00    -  4.34e-01 6.26e-01f  1
 133r 0.0000000e+00 1.86e-01 1.58e+02  -0.6 1.02e+01    -  4.86e-02 3.22e-01f  1
 134r 0.0000000e+00 1.86e-01 1.30e+02  -0.6 6.34e+00    -  1.81e-01 2.06e-01f  1
 135r 0.0000000e+00 1.86e-01 1.16e+02  -0.6 8.91e+00    -  3.28e-01 4.52e-01f  1
 136r 0.0000000e+00 1.90e-01 3.22e+01  -0.6 8.29e+00    -  1.00e+00 9.59e-01f  1
 137r 0.0000000e+00 1.87e-01 5.31e+01  -0.8 5.49e+00    -  7.93e-01 6.17e-01f  1
 138r 0.0000000e+00 1.86e-01 5.92e+01  -0.4 5.56e+00    -  4.80e-01 3.01e-01f  1
 139r 0.0000000e+00 1.89e-01 2.34e+02  -1.0 9.65e+00    -  4.72e-01 2.45e-01f  1
iter    objective    inf_pr   inf_du lg(mu)  ||d||  lg(rg) alpha_du alpha_pr  ls
 140r 0.0000000e+00 1.89e-01 1.03e+02  -0.4 8.06e+00    -  1.00e+00 5.52e-01f  1
 141r 0.0000000e+00 1.88e-01 5.89e+01  -0.6 1.11e+01    -  1.93e-01 2.43e-01h  1
 142r 0.0000000e+00 1.88e-01 1.21e+02  -0.6 6.03e+00    -  9.24e-01 4.26e-01h  1
 143r 0.0000000e+00 1.86e-01 2.45e+02  -0.6 8.76e+00    -  1.48e-01 3.46e-01F  1
 144r 0.0000000e+00 1.86e-01 2.75e+02  -0.7 2.68e+01    -  2.08e-01 3.35e-01f  1
 145r 0.0000000e+00 1.87e-01 3.30e+02  -0.7 1.44e+01    -  2.63e-01 5.90e-01f  1
 146r 0.0000000e+00 1.90e-01 2.60e+02  -0.7 2.78e+01    -  1.86e-01 2.81e-01f  1
 147r 0.0000000e+00 1.89e-01 2.24e+02  -0.7 3.31e+01    -  4.96e-01 3.08e-01H  1
 148r 0.0000000e+00 1.89e-01 6.90e+01  -0.7 1.59e+01    -  4.67e-01 7.35e-01h  1
 149r 0.0000000e+00 1.88e-01 6.67e+01  -0.7 6.26e+00    -  6.97e-01 5.44e-01h  1
iter    objective    inf_pr   inf_du lg(mu)  ||d||  lg(rg) alpha_du alpha_pr  ls
 150r 0.0000000e+00 1.89e-01 2.39e+01  -0.7 3.71e+00    -  5.31e-01 5.05e-01f  1
 151r 0.0000000e+00 1.88e-01 2.39e+01  -0.7 1.58e+01    -  2.27e-01 2.09e-01f  1
 152r 0.0000000e+00 1.88e-01 8.40e+01  -0.7 1.13e+01    -  4.17e-01 7.62e-01f  1
 153r 0.0000000e+00 1.90e-01 2.02e+02  -0.7 7.48e+00    -  1.72e-01 4.07e-01f  1
 154r 0.0000000e+00 1.89e-01 2.21e+02  -0.7 6.20e+00    -  4.42e-01 2.31e-01f  1
 155r 0.0000000e+00 1.89e-01 4.78e+00  -0.9 3.80e+00    -  1.00e+00 1.00e+00f  1
 156r 0.0000000e+00 1.92e-01 6.82e+00  -2.0 3.88e+00    -  3.11e-01 3.17e-01f  1
 157r 0.0000000e+00 1.91e-01 8.61e+00  -1.5 1.75e+01    -  4.66e-01 4.05e-01f  1
 158r 0.0000000e+00 1.90e-01 1.26e+01  -1.2 9.58e+00    -  5.71e-01 4.21e-01h  2
 159r 0.0000000e+00 1.90e-01 1.93e+02  -0.9 1.06e+01    -  9.98e-01 3.75e-01f  1
iter    objective    inf_pr   inf_du lg(mu)  ||d||  lg(rg) alpha_du alpha_pr  ls
 160r 0.0000000e+00 1.90e-01 3.11e+02  -1.1 5.29e+00    -  5.60e-01 1.47e-01f  1
 161r 0.0000000e+00 1.88e-01 9.09e+00  -1.1 4.11e+00    -  1.00e+00 9.18e-01f  1
 162r 0.0000000e+00 1.88e-01 2.57e+02  -1.1 1.35e+01    -  5.21e-02 2.46e-01f  1
 163r 0.0000000e+00 1.87e-01 1.62e+02  -1.1 1.65e+01    -  2.84e-01 4.42e-01h  1
 164r 0.0000000e+00 1.87e-01 1.21e+02  -1.1 8.30e+00    -  7.57e-01 4.64e-01h  1
 165r 0.0000000e+00 1.87e-01 7.52e+01  -1.1 8.33e+00    -  6.96e-01 4.72e-01h  1
 166r 0.0000000e+00 1.87e-01 5.67e+01  -1.1 5.68e+00    -  3.06e-01 4.33e-01f  2
 167r 0.0000000e+00 1.87e-01 3.39e+01  -1.1 7.10e+00    -  3.99e-01 2.37e-01h  2
 168r 0.0000000e+00 1.87e-01 6.63e+01  -1.2 6.38e+00    -  1.00e+00 5.76e-01f  1
 169r 0.0000000e+00 1.91e-01 6.33e+01  -0.6 2.20e+01    -  6.18e-01 2.54e-01f  1
iter    objective    inf_pr   inf_du lg(mu)  ||d||  lg(rg) alpha_du alpha_pr  ls
 170r 0.0000000e+00 1.87e-01 4.85e+01  -1.0 6.84e+00    -  4.39e-01 6.06e-01f  1
 171r 0.0000000e+00 1.88e-01 4.66e+01  -1.0 4.49e+00    -  9.41e-01 5.83e-01h  1
 172r 0.0000000e+00 1.88e-01 4.48e+01  -1.0 6.97e+00    -  4.40e-01 2.86e-01f  2
 173r 0.0000000e+00 1.88e-01 1.00e+01  -1.1 6.20e+00    -  9.99e-01 9.79e-01f  1
 174r 0.0000000e+00 1.88e-01 1.42e+01  -1.2 3.95e+00    -  1.25e-01 2.12e-01h  1
 175r 0.0000000e+00 1.87e-01 1.04e+01  -1.2 5.38e+00    -  4.38e-01 4.02e-01f  1
 176r 0.0000000e+00 1.86e-01 4.44e+01  -1.2 4.21e+00    -  2.51e-01 5.61e-01F  1
 177r 0.0000000e+00 1.87e-01 2.41e+01  -1.2 1.93e+01    -  1.25e-01 1.73e-01h  2
 178r 0.0000000e+00 1.86e-01 1.78e+01  -1.2 6.09e+00    -  4.08e-01 3.41e-01h  1
 179r 0.0000000e+00 1.86e-01 9.56e+00  -1.2 2.39e+00    -  5.59e-01 6.01e-01f  1
iter    objective    inf_pr   inf_du lg(mu)  ||d||  lg(rg) alpha_du alpha_pr  ls
 180r 0.0000000e+00 1.93e-01 1.92e+01  -0.5 5.32e+00    -  6.09e-01 5.41e-01f  1
 181r 0.0000000e+00 1.91e-01 2.87e+01  -0.8 1.96e+01    -  3.10e-01 2.44e-01f  1
 182r 0.0000000e+00 1.87e-01 2.95e+01  -0.8 1.05e+01    -  6.53e-01 6.01e-01f  1
 183r 0.0000000e+00 1.86e-01 5.58e+01  -0.8 5.82e+00    -  9.60e-01 6.64e-01h  1
 184r 0.0000000e+00 1.86e-01 2.61e+01  -0.8 6.25e+00    -  4.96e-01 3.71e-01h  1
 185r 0.0000000e+00 1.85e-01 8.33e+01  -0.8 3.60e+00    -  4.16e-01 1.00e+00f  1
 186r 0.0000000e+00 1.85e-01 5.84e+00  -0.8 7.04e+00    -  1.00e+00 1.00e+00H  1
 187r 0.0000000e+00 1.86e-01 2.00e+01  -1.5 1.09e+01    -  2.08e-01 1.71e-01f  1
 188r 0.0000000e+00 1.87e-01 1.29e+01  -1.5 1.57e+01    -  4.62e-01 5.40e-01f  1
 189r 0.0000000e+00 1.87e-01 1.05e+02  -1.5 4.95e+00    -  1.30e-01 4.46e-01f  1
iter    objective    inf_pr   inf_du lg(mu)  ||d||  lg(rg) alpha_du alpha_pr  ls
 190r 0.0000000e+00 1.87e-01 1.57e+02  -0.7 3.65e+00    -  4.99e-01 1.62e-01f  1
 191r 0.0000000e+00 1.85e-01 4.83e+01  -1.1 8.74e+00    -  3.19e-01 6.58e-01f  1
 192r 0.0000000e+00 1.86e-01 6.26e+01  -1.1 3.09e+00    -  4.50e-01 2.97e-01h  2
 193r 0.0000000e+00 1.86e-01 1.74e+01  -1.1 5.06e+00    -  4.62e-01 2.75e-01h  1
 194r 0.0000000e+00 1.84e-01 9.10e+00  -1.4 4.74e+00    -  1.00e+00 9.97e-01f  1
 195r 0.0000000e+00 1.88e-01 1.74e+02  -0.6 1.62e+01    -  8.49e-01 1.68e-01f  1
 196r 0.0000000e+00 1.87e-01 2.22e+02  -1.0 1.35e+01    -  2.78e-01 6.47e-01f  1
 197r 0.0000000e+00 1.87e-01 2.17e+02  -1.0 1.66e+01    -  6.39e-02 2.87e-01f  1
 198r 0.0000000e+00 1.87e-01 1.53e+02  -1.0 9.15e+00    -  2.67e-01 3.14e-01f  1

Number of Iterations....: 198

                                   (scaled)                 (unscaled)
Objective...............:   0.0000000000000000e+00    0.0000000000000000e+00
Dual infeasibility......:   1.5254123761098452e+02    1.5254123761098452e+02
Constraint violation....:   1.8677189241455994e-01    1.8677189241455994e-01
Complementarity.........:   1.8553436525846959e-01    1.8553436525846959e-01
Overall NLP error.......:   1.5254123761098452e+02    1.5254123761098452e+02


Number of objective function evaluations             = 347
Number of objective gradient evaluations             = 94
Number of equality constraint evaluations            = 347
Number of inequality constraint evaluations          = 347
Number of equality constraint Jacobian evaluations   = 200
Number of inequality constraint Jacobian evaluations = 200
Number of Lagrangian Hessian evaluations             = 0
Total CPU secs in IPOPT (w/o function evaluations)   =      3.264
Total CPU secs in NLP function evaluations           =     11.797

EXIT: Maximum CPU time exceeded.
status -> -4

************************************************************
    IFOPT - Interface to Nonlinear Optimizers (v2.0)
                © Alexander W. Winkler
           https://github.com/ethz-adrl/ifopt
************************************************************
Legend:
c - number of variables, constraints or cost terms
i - indices of this set in overall problem
ERROR: Ipopt failed to find a solution. Return Code: -4
v - number of [violated variable- or constraint-bounds] or [cost term value]

                                   c             i             v 
variable-sets:
   base-lin                       306        0....305[0m           0[0m
   base-ang                       306      306....611[0m           0[0m
   ee-motion_0                     35      612....646[0m           0[0m
   ee-motion_1                     35      647....681[0m           0[0m
   ee-motion_2                     35      682....716[0m           0[0m
   ee-motion_3                     35      717....751[0m           0[0m
   ee-force_0                      72      752....823[0m           0[0m
   ee-force_1                      72      824....895[0m           0[0m
   ee-force_2                      72      896....967[0m           0[0m
   ee-force_3                      72      968...1039[0m           0[0m

constraint-sets:
   terrain-ee-motion_0             13        0.....12[31m           7[0m
   terrain-ee-motion_1             13       13.....25[31m           4[0m
   terrain-ee-motion_2             13       26.....38[0m           0[0m
   terrain-ee-motion_3             13       39.....51[31m           2[0m
   dynamic                        312       52....363[31m          78[0m
   splineacc-base-lin             147      364....510[0m           0[0m
   splineacc-base-ang             147      511....657[0m           0[0m
   rangeofmotion-0                192      658....849[31m           1[0m
   rangeofmotion-1                192      850...1041[31m           2[0m
   rangeofmotion-2                192     1042...1233[31m           1[0m
   rangeofmotion-3                192     1234...1425[31m           1[0m
   force-ee-force_0                60     1426...1485[0m           0[0m
   force-ee-force_1                60     1486...1545[0m           0[0m
   force-ee-force_2                60     1546...1605[0m           0[0m
   force-ee-force_3                60     1606...1665[0m           0[0m
   swing-ee-motion_0               16     1666...1681[0m           0[0m
   swing-ee-motion_1               16     1682...1697[0m           0[0m
   swing-ee-motion_2               16     1698...1713[0m           0[0m
   swing-ee-motion_3               16     1714...1729[0m           0[0m

cost-terms:

